# Solution for model GasLib-40
# Objective value = 1.0960130244233255e+01
loadshed[innode_1] 0
loadshed[innode_2] 0
loadshed[innode_3] 0
loadshed[innode_4] 0
loadshed[innode_5] 0
loadshed[innode_6] 0
loadshed[innode_7] 0
loadshed[innode_8] 0
loadshed[source_1] -3.2550438113601676e-01
loadshed[source_2] 7.2171163759475521e-02
loadshed[source_3] 3.2266151762547035e-01
loadshed[sink_1] 0
loadshed[sink_2] 0
loadshed[sink_3] 0
loadshed[sink_4] 0
loadshed[sink_5] 0
loadshed[sink_6] 0
loadshed[sink_7] 0
loadshed[sink_8] 0
loadshed[sink_9] 0
loadshed[sink_10] 0
loadshed[sink_11] 0
loadshed[sink_12] 6.7017356907413528e-01
loadshed[sink_13] 0
loadshed[sink_14] 0
loadshed[sink_15] 0
loadshed[sink_16] 0
loadshed[sink_17] 0
loadshed[sink_18] 0
loadshed[sink_19] 0
loadshed[sink_20] 0
loadshed[sink_21] 0
loadshed[sink_22] 0
loadshed[sink_23] 0
loadshed[sink_24] 0
loadshed[sink_25] 0
loadshed[sink_26] 0
loadshed[sink_27] 0
loadshed[sink_28] 0
loadshed[sink_29] 0
flow[source_1,sink_3] 2.0954935580945431e+02
flow[innode_1,sink_16] 1.6354166666666970e+01
flow[innode_6,sink_13] 7.39853783851217
flow[sink_13,sink_14] -8.9556288281544987e+00
flow[sink_14,sink_10] -25.3097954948214
flow[sink_25,sink_26] 1.7605144705749186e+02
flow[sink_26,sink_9] 1.2369855790846830e+02
flow[sink_9,sink_18] 1.0734439124180163e+02
flow[sink_26,sink_4] 3.5998722482356889e+01
flow[sink_4,sink_20] -4.1946756031609993e+01
flow[sink_18,sink_6] 9.0990224575134960e+01
flow[sink_25,innode_8] -1.7684102247611796e+02
flow[sink_6,sink_7] 4.1927724575134107e+01
flow[sink_6,sink_22] 3.2708333333333641e+01
flow[sink_7,sink_24] 3.8102369755766752e+01
flow[sink_22,sink_1] 1.6354166666666970e+01
flow[sink_24,sink_21] 2.1748203089100080e+01
flow[sink_21,sink_12] 5.3940364224334143e+00
flow[sink_7,sink_5] -1.2528811847298670e+01
flow[sink_5,sink_17] -2.8882978513965327e+01
flow[sink_17,sink_4] -61.5913118473004
flow[sink_17,sink_8] 1.6354166666668334e+01
flow[sink_3,sink_23] 16.3541666666697
flow[sink_8,sink_20] 0
flow[sink_25,sink_20] 5.8300922698276707e+01
flow[sink_25,sink_15] -8.1264051784828908e+01
flow[sink_15,sink_29] 0
flow[sink_29,sink_28] 1.6354166666667879e+01
flow[sink_29,sink_2] 1.1397238511816225e+02
flow[sink_2,sink_15] 9.7618218451495579e+01
flow[sink_29,innode_7] -1.4668071845149680e+02
flow[innode_4,sink_19] 1.0708062882816782e+02
flow[sink_19,innode_3] 3.6293366276184244e+01
flow[innode_4,innode_5] 0
flow[sink_27,innode_5] 0
flow[sink_27,sink_19] -1.6354166666679703e+01
flow[sink_10,sink_11] 3.2708333333333641e+01
flow[sink_10,innode_2] -38.0789292186372
flow[sink_10,innode_3] -3.6293366276184244e+01
flow[innode_6,sink_25] -7.39853783851217
flow[sink_11,innode_1] 1.6354166666666970e+01
flow[sink_19,innode_2] 38.0789292186372
flow[source_3,innode_4] 1.0708062882816782e+02
flow[source_2,innode_7] 1.4668071845149680e+02
flow[sink_3,innode_8] 1.7684102247611796e+02
pressure[innode_1] 7.4510810895236588e+01
pressure[innode_2] 76.6751408831736
pressure[innode_3] 7.6594773333332881e+01
pressure[innode_4] 81.01325
pressure[innode_5] 81.01325
pressure[innode_6] 7.3490154456637470e+01
pressure[innode_7] 81.01325
pressure[innode_8] 8.0312806554284435e+01
pressure[source_1] 81.01325
pressure[source_2] 81.01325
pressure[source_3] 81.01325
pressure[sink_1] 4.5272448945165451e+01
pressure[sink_2] 7.4203066261795641e+01
pressure[sink_3] 8.0312806554284435e+01
pressure[sink_4] 5.6513983684399776e+01
pressure[sink_5] 5.2008593709543632e+01
pressure[sink_6] 4.7373526555552822e+01
pressure[sink_7] 4.6797958837705480e+01
pressure[sink_8] 5.3543081641255327e+01
pressure[sink_9] 5.3687276481648070e+01
pressure[sink_10] 7.4662512202840134e+01
pressure[sink_11] 7.4510810895236588e+01
pressure[sink_12] 1.01325
pressure[sink_13] 7.3449367553944285e+01
pressure[sink_14] 7.3465394414583173e+01
pressure[sink_15] 73.8843642932603
pressure[sink_16] 7.3489161060418908e+01
pressure[sink_17] 5.4160166836668949e+01
pressure[sink_18] 4.9803236465210041e+01
pressure[sink_19] 76.6751408831736
pressure[sink_20] 5.9591392748649369e+01
pressure[sink_21] 2.9327433758651420e+00
pressure[sink_22] 4.6336218087520457e+01
pressure[sink_23] 8.0148088542624649e+01
pressure[sink_24] 3.1735845185863822e+00
pressure[sink_25] 7.3490154456637470e+01
pressure[sink_26] 6.1090954429659632e+01
pressure[sink_27] 76.3240108860301
pressure[sink_28] 7.6794833128859636e+01
pressure[sink_29] 7.7090115402476812e+01
interdiction[source_1,sink_3] 0
interdiction[innode_1,sink_16] 0
interdiction[innode_6,sink_13] 0
interdiction[sink_13,sink_14] 0
interdiction[sink_14,sink_10] 0
interdiction[sink_25,sink_26] 0
interdiction[sink_26,sink_9] 0
interdiction[sink_9,sink_18] 0
interdiction[sink_26,sink_4] 0
interdiction[sink_4,sink_20] 0
interdiction[sink_18,sink_6] 0
interdiction[sink_25,innode_8] 0
interdiction[sink_6,sink_7] 0
interdiction[sink_6,sink_22] 0
interdiction[sink_7,sink_24] 0
interdiction[sink_22,sink_1] 0
interdiction[sink_24,sink_21] 0
interdiction[sink_21,sink_12] 0
interdiction[sink_7,sink_5] 0
interdiction[sink_5,sink_17] 0
interdiction[sink_17,sink_4] 0
interdiction[sink_17,sink_8] 0
interdiction[sink_3,sink_23] 0
interdiction[sink_8,sink_20] 1
interdiction[sink_25,sink_20] 0
interdiction[sink_25,sink_15] 0
interdiction[sink_15,sink_29] 1
interdiction[sink_29,sink_28] 0
interdiction[sink_29,sink_2] 0
interdiction[sink_2,sink_15] 0
interdiction[sink_29,innode_7] 0
interdiction[innode_4,sink_19] 0
interdiction[sink_19,innode_3] 0
interdiction[innode_4,innode_5] 0
interdiction[sink_27,innode_5] 1
interdiction[sink_27,sink_19] 0
interdiction[sink_10,sink_11] 0
interdiction[sink_10,innode_2] 0
interdiction[sink_10,innode_3] 0
interdiction[innode_6,sink_25] 0
interdiction[sink_11,innode_1] 0
interdiction[sink_19,innode_2] 0
interdiction[source_3,innode_4] 0
interdiction[source_2,innode_7] 0
interdiction[sink_3,innode_8] 0
WCcheckFlow[source_1,sink_3] 39
WCcheckFlow[innode_1,sink_16] 1
WCcheckFlow[innode_6,sink_13] 13
WCcheckFlow[sink_13,sink_14] 12
WCcheckFlow[sink_14,sink_10] 11
WCcheckFlow[sink_25,sink_26] 15
WCcheckFlow[sink_26,sink_9] 12
WCcheckFlow[sink_9,sink_18] 11
WCcheckFlow[sink_26,sink_4] 2
WCcheckFlow[sink_4,sink_20] 1
WCcheckFlow[sink_18,sink_6] 10
WCcheckFlow[sink_25,innode_8] -36
WCcheckFlow[sink_6,sink_7] 7
WCcheckFlow[sink_6,sink_22] 2
WCcheckFlow[sink_7,sink_24] 3
WCcheckFlow[sink_22,sink_1] 1
WCcheckFlow[sink_24,sink_21] 2
WCcheckFlow[sink_21,sink_12] 1
WCcheckFlow[sink_7,sink_5] 3
WCcheckFlow[sink_5,sink_17] 2
WCcheckFlow[sink_17,sink_4] 0
WCcheckFlow[sink_17,sink_8] 1
WCcheckFlow[sink_3,sink_23] 1
WCcheckFlow[sink_8,sink_20] 0
WCcheckFlow[sink_25,sink_20] 0
WCcheckFlow[sink_25,sink_15] 6
WCcheckFlow[sink_15,sink_29] 0
WCcheckFlow[sink_29,sink_28] 1
WCcheckFlow[sink_29,sink_2] -4
WCcheckFlow[sink_2,sink_15] -5
WCcheckFlow[sink_29,innode_7] 2
WCcheckFlow[innode_4,sink_19] -3
WCcheckFlow[sink_19,innode_3] -5
WCcheckFlow[innode_4,innode_5] 1
WCcheckFlow[sink_27,innode_5] 0
WCcheckFlow[sink_27,sink_19] -1
WCcheckFlow[sink_10,sink_11] 3
WCcheckFlow[sink_10,innode_2] 1
WCcheckFlow[sink_10,innode_3] 6
WCcheckFlow[innode_6,sink_25] -14
WCcheckFlow[sink_11,innode_1] 2
WCcheckFlow[sink_19,innode_2] 0
WCcheckFlow[source_3,innode_4] -1
WCcheckFlow[source_2,innode_7] -1
WCcheckFlow[sink_3,innode_8] 37
